212 300 156 34 282 194 43 101 56 33 100 166 210 298 295 181 89 22 215 290 10 50 280 99 293 273 184 29 233 152 21 27 63 228 61 44 121 155 197 229 240 296 94 201 293 140 81 133 214 295 122 275 44 154 126 89 126 61 117 111 212 189 137 26 116 249 122 288 156 18 216 95 13 61 295 57 253 75 241 166 69 115 192 164 268 17 4 145 78 120 255 41 8 144 67 175 144 240 163 299 257 78 145 21 191 191 77 143 265 69 60 85 183 251 1 150 20 4 47 97 176 1 137 183 196 255 110 40 246 24 90 202 153 235 222 43 177 50 185 194 171 244 278 53 247 30 255 266 34 1 114 209 53 2 143 249 257 252 288 202 275 129 156 128 115 129 222 292 231 107 185 101 102 214 153 48 244 159 65 29 159 178 289 264 180 131 212 188 135 251 141 161 131 296 40 246 177 262 237 107 120 173 207 221 86 111 21 81 22 137 161 232 15 149 